p cnf 2227
-13 -193
-14 -69
-15 -72
-16 -75
-17 -78
-18 -81
-19 -84
-20 -225
-21 -231
-22 -237
-23 -243
-24 -249
-25 -255
-26 -280
-27 -299
-28 -317
-29 -327
-30 -346
-31 -365
-32 -383
-33 -393
-34 -412
-35 -431
-36 -449
-37 -459
-38 -478
-39 -497
-40 -515
-41 -525
-42 -544
-43 -563
-44 -581
-45 -591
-46 -610
-47 -629
-48 -647
-49 -657
-50 -702
-51 -708
-52 1
-52 -20
-1 20 52
-53 2
-53 -21
-2 21 53
-54 3
-54 -22
-3 22 54
-55 4
-55 -23
-4 23 55
-56 5
-56 -24
-5 24 56
-57 6
-57 -25
-6 25 57
-58 -52
-58 53
52 -53 58
-59 -52
-59 -58
52 58 59
-60 54
-60 59
-54 -59 60
-61 59
-61 -60
-59 60 61
-62 55
-62 61
-55 -61 62
-63 61
-63 -62
-61 62 63
-64 56
-64 63
-56 -63 64
-65 63
-65 -64
-63 64 65
-66 57
-66 65
-57 -65 66
-67 -13
-67 52
13 -52 67
-68 13
-68 14
-13 -14 68
-69 -67
-69 -68
67 68 69
-70 -13
-70 58
13 -58 70
-71 13
-71 15
-13 -15 71
-72 -70
-72 -71
70 71 72
-73 -13
-73 60
13 -60 73
-74 13
-74 16
-13 -16 74
-75 -73
-75 -74
73 74 75
-76 -13
-76 62
13 -62 76
-77 13
-77 17
-13 -17 77
-78 -76
-78 -77
76 77 78
-79 -13
-79 64
13 -64 79
-80 13
-80 18
-13 -18 80
-81 -79
-81 -80
79 80 81
-82 -13
-82 66
13 -66 82
-83 13
-83 19
-13 -19 83
-84 -82
-84 -83
82 83 84
-85 1
-85 -69
-1 69 85
-86 2
-86 -72
-2 72 86
-87 3
-87 -75
-3 75 87
-88 4
-88 -78
-4 78 88
-89 5
-89 -81
-5 81 89
-90 6
-90 -84
-6 84 90
-91 26
-91 -27
-26 27 91
-92 -28
-92 -29
28 29 92
-93 91
-93 92
-91 -92 93
-94 -26
-94 -27
26 27 94
-95 -28
-95 29
28 -29 95
-96 94
-96 95
-94 -95 96
-97 -93
-97 -96
93 96 97
-98 85
-98 -97
-85 97 98
-99 30
-99 -31
-30 31 99
-100 -32
-100 -33
32 33 100
-101 99
-101 100
-99 -100 101
-102 -30
-102 -31
30 31 102
-103 -32
-103 33
32 -33 103
-104 102
-104 103
-102 -103 104
-105 -101
-105 -104
101 104 105
-106 86
-106 -105
-86 105 106
-107 34
-107 -35
-34 35 107
-108 -36
-108 -37
36 37 108
-109 107
-109 108
-107 -108 109
-110 -34
-110 -35
34 35 110
-111 -36
-111 37
36 -37 111
-112 110
-112 111
-110 -111 112
-113 -109
-113 -112
109 112 113
-114 87
-114 -113
-87 113 114
-115 38
-115 -39
-38 39 115
-116 -40
-116 -41
40 41 116
-117 115
-117 116
-115 -116 117
-118 -38
-118 -39
38 39 118
-119 -40
-119 41
40 -41 119
-120 118
-120 119
-118 -119 120
-121 -117
-121 -120
117 120 121
-122 88
-122 -121
-88 121 122
-123 42
-123 -43
-42 43 123
-124 -44
-124 -45
44 45 124
-125 123
-125 124
-123 -124 125
-126 -42
-126 -43
42 43 126
-127 -44
-127 45
44 -45 127
-128 126
-128 127
-126 -127 128
-129 -125
-129 -128
125 128 129
-130 89
-130 -129
-89 129 130
-131 46
-131 -47
-46 47 131
-132 -48
-132 -49
48 49 132
-133 131
-133 132
-131 -132 133
-134 -46
-134 -47
46 47 134
-135 -48
-135 49
48 -49 135
-136 134
-136 135
-134 -135 136
-137 -133
-137 -136
133 136 137
-138 90
-138 -137
-90 137 138
-139 -98
-139 -106
98 106 139
-140 -114
-140 -122
114 122 140
-141 -130
-141 -138
130 138 141
-142 139
-142 140
-139 -140 142
-143 141
-143 142
-141 -142 143
-144 -26
-144 27
26 -27 144
-145 28
-145 -29
-28 29 145
-146 144
-146 145
-144 -145 146
-147 28
-147 29
-28 -29 147
-148 91
-148 147
-91 -147 148
-149 -146
-149 -148
146 148 149
-150 85
-150 -149
-85 149 150
-151 -30
-151 31
30 -31 151
-152 32
-152 -33
-32 33 152
-153 151
-153 152
-151 -152 153
-154 32
-154 33
-32 -33 154
-155 99
-155 154
-99 -154 155
-156 -153
-156 -155
153 155 156
-157 86
-157 -156
-86 156 157
-158 -34
-158 35
34 -35 158
-159 36
-159 -37
-36 37 159
-160 158
-160 159
-158 -159 160
-161 36
-161 37
-36 -37 161
-162 107
-162 161
-107 -161 162
-163 -160
-163 -162
160 162 163
-164 87
-164 -163
-87 163 164
-165 -38
-165 39
38 -39 165
-166 40
-166 -41
-40 41 166
-167 165
-167 166
-165 -166 167
-168 40
-168 41
-40 -41 168
-169 115
-169 168
-115 -168 169
-170 -167
-170 -169
167 169 170
-171 88
-171 -170
-88 170 171
-172 -42
-172 43
42 -43 172
-173 44
-173 -45
-44 45 173
-174 172
-174 173
-172 -173 174
-175 44
-175 45
-44 -45 175
-176 123
-176 175
-123 -175 176
-177 -174
-177 -176
174 176 177
-178 89
-178 -177
-89 177 178
-179 -46
-179 47
46 -47 179
-180 48
-180 -49
-48 49 180
-181 179
-181 180
-179 -180 181
-182 48
-182 49
-48 -49 182
-183 131
-183 182
-131 -182 183
-184 -181
-184 -183
181 183 184
-185 90
-185 -184
-90 184 185
-186 -150
-186 -157
150 157 186
-187 -164
-187 -171
164 171 187
-188 -178
-188 -185
178 185 188
-189 186
-189 187
-186 -187 189
-190 188
-190 189
-188 -189 190
-191 13
-191 190
-13 -190 191
-192 143
-192 191
-143 -191 192
-193 143
-193 -192
-143 192 193
-194 -20
-194 21
20 -21 194
-195 -20
-195 -194
20 194 195
-196 22
-196 195
-22 -195 196
-197 195
-197 -196
-195 196 197
-198 23
-198 197
-23 -197 198
-199 197
-199 -198
-197 198 199
-200 24
-200 199
-24 -199 200
-201 199
-201 -200
-199 200 201
-202 25
-202 201
-25 -201 202
-203 94
-203 147
-94 -147 203
-204 85
-204 203
-85 -203 204
-205 102
-205 154
-102 -154 205
-206 86
-206 205
-86 -205 206
-207 110
-207 161
-110 -161 207
-208 87
-208 207
-87 -207 208
-209 118
-209 168
-118 -168 209
-210 88
-210 209
-88 -209 210
-211 126
-211 175
-126 -175 211
-212 89
-212 211
-89 -211 212
-213 134
-213 182
-134 -182 213
-214 90
-214 213
-90 -213 214
-215 -204
-215 -206
204 206 215
-216 -208
-216 -210
208 210 216
-217 -212
-217 -214
212 214 217
-218 215
-218 216
-215 -216 218
-219 217
-219 218
-217 -218 219
-220 91
-220 145
-91 -145 220
-221 85
-221 220
-85 -220 221
-222 20
-222 -219
-20 219 222
-223 20
-223 -222
-20 222 223
-224 -221
-224 223
221 -223 224
-225 -221
-225 -224
221 224 225
-226 99
-226 152
-99 -152 226
-227 86
-227 226
-86 -226 227
-228 194
-228 -219
-194 219 228
-229 21
-229 -228
-21 228 229
-230 -227
-230 229
227 -229 230
-231 -227
-231 -230
227 230 231
-232 107
-232 159
-107 -159 232
-233 87
-233 232
-87 -232 233
-234 196
-234 -219
-196 219 234
-235 22
-235 -234
-22 234 235
-236 -233
-236 235
233 -235 236
-237 -233
-237 -236
233 236 237
-238 115
-238 166
-115 -166 238
-239 88
-239 238
-88 -238 239
-240 198
-240 -219
-198 219 240
-241 23
-241 -240
-23 240 241
-242 -239
-242 241
239 -241 242
-243 -239
-243 -242
239 242 243
-244 123
-244 173
-123 -173 244
-245 89
-245 244
-89 -244 245
-246 200
-246 -219
-200 219 246
-247 24
-247 -246
-24 246 247
-248 -245
-248 247
245 -247 248
-249 -245
-249 -248
245 248 249
-250 131
-250 180
-131 -180 250
-251 90
-251 250
-90 -250 251
-252 202
-252 -219
-202 219 252
-253 25
-253 -252
-25 252 253
-254 -251
-254 253
251 -253 254
-255 -251
-255 -254
251 254 255
-256 -20
-256 -21
20 21 256
-257 -22
-257 -23
22 23 257
-258 -24
-258 -25
24 25 258
-259 256
-259 257
-256 -257 259
-260 258
-260 259
-258 -259 260
-261 50
-261 51
-50 -51 261
-262 -27
-262 -94
27 94 262
-263 28
-263 94
-28 -94 263
-264 -28
-264 -262
28 262 264
-265 -263
-265 -264
263 264 265
-266 -7
-266 26
7 -26 266
-267 26
-267 -266
-26 266 267
-268 27
-268 -267
-27 267 268
-269 7
-269 -26
-7 26 269
-270 -27
-270 269
27 -269 270
-271 -144
-271 -270
144 270 271
-272 28
-272 268
-28 -268 272
-273 -28
-273 -271
28 271 273
-274 -272
-274 -273
272 273 274
-275 29
-275 -265
-29 265 275
-276 -29
-276 -274
29 274 276
-277 -275
-277 -276
275 276 277
-278 85
-278 -277
-85 277 278
-279 26
-279 -85
-26 85 279
-280 -278
-280 -279
278 279 280
-281 26
-281 260
-26 -260 281
-282 -27
-282 281
27 -281 282
-283 -144
-283 -282
144 282 283
-284 28
-284 91
-28 -91 284
-285 -28
-285 -283
28 283 285
-286 -284
-286 -285
284 285 286
-287 27
-287 -268
-27 268 287
-288 -26
-288 -261
26 261 288
-289 27
-289 288
-27 -288 289
-290 -91
-290 -289
91 289 290
-291 28
-291 -287
-28 287 291
-292 -28
-292 -290
28 290 292
-293 -291
-293 -292
291 292 293
-294 29
-294 -286
-29 286 294
-295 -29
-295 -293
29 293 295
-296 -294
-296 -295
294 295 296
-297 85
-297 -296
-85 296 297
-298 27
-298 -85
-27 85 298
-299 -297
-299 -298
297 298 299
-300 26
-300 -260
-26 260 300
-301 26
-301 27
-26 -27 301
-302 -27
-302 300
27 -300 302
-303 -301
-303 -302
301 302 303
-304 -27
-304 28
27 -28 304
-305 -28
-305 -303
28 303 305
-306 -304
-306 -305
304 305 306
-307 -26
-307 261
26 -261 307
-308 -26
-308 -307
26 307 308
-309 27
-309 -308
-27 308 309
-310 -28
-310 309
28 -309 310
-311 -291
-311 -310
291 310 311
-312 29
-312 -306
-29 306 312
-313 -29
-313 -311
29 311 313
-314 -312
-314 -313
312 313 314
-315 85
-315 -314
-85 314 315
-316 28
-316 -85
-28 85 316
-317 -315
-317 -316
315 316 317
-318 28
-318 -304
-28 304 318
-319 7
-319 26
-7 -26 319
-320 27
-320 319
-27 -319 320
-321 28
-321 320
-28 -320 321
-322 29
-322 -318
-29 318 322
-323 -29
-323 321
29 -321 323
-324 -322
-324 -323
322 323 324
-325 85
-325 -324
-85 324 325
-326 29
-326 -85
-29 85 326
-327 -325
-327 -326
325 326 327
-328 -31
-328 -102
31 102 328
-329 32
-329 102
-32 -102 329
-330 -32
-330 -328
32 328 330
-331 -329
-331 -330
329 330 331
-332 -8
-332 30
8 -30 332
-333 30
-333 -332
-30 332 333
-334 31
-334 -333
-31 333 334
-335 8
-335 -30
-8 30 335
-336 -31
-336 335
31 -335 336
-337 -151
-337 -336
151 336 337
-338 32
-338 334
-32 -334 338
-339 -32
-339 -337
32 337 339
-340 -338
-340 -339
338 339 340
-341 33
-341 -331
-33 331 341
-342 -33
-342 -340
33 340 342
-343 -341
-343 -342
341 342 343
-344 86
-344 -343
-86 343 344
-345 30
-345 -86
-30 86 345
-346 -344
-346 -345
344 345 346
-347 30
-347 260
-30 -260 347
-348 -31
-348 347
31 -347 348
-349 -151
-349 -348
151 348 349
-350 32
-350 99
-32 -99 350
-351 -32
-351 -349
32 349 351
-352 -350
-352 -351
350 351 352
-353 31
-353 -334
-31 334 353
-354 -30
-354 -261
30 261 354
-355 31
-355 354
-31 -354 355
-356 -99
-356 -355
99 355 356
-357 32
-357 -353
-32 353 357
-358 -32
-358 -356
32 356 358
-359 -357
-359 -358
357 358 359
-360 33
-360 -352
-33 352 360
-361 -33
-361 -359
33 359 361
-362 -360
-362 -361
360 361 362
-363 86
-363 -362
-86 362 363
-364 31
-364 -86
-31 86 364
-365 -363
-365 -364
363 364 365
-366 30
-366 -260
-30 260 366
-367 30
-367 31
-30 -31 367
-368 -31
-368 366
31 -366 368
-369 -367
-369 -368
367 368 369
-370 -31
-370 32
31 -32 370
-371 -32
-371 -369
32 369 371
-372 -370
-372 -371
370 371 372
-373 -30
-373 261
30 -261 373
-374 -30
-374 -373
30 373 374
-375 31
-375 -374
-31 374 375
-376 -32
-376 375
32 -375 376
-377 -357
-377 -376
357 376 377
-378 33
-378 -372
-33 372 378
-379 -33
-379 -377
33 377 379
-380 -378
-380 -379
378 379 380
-381 86
-381 -380
-86 380 381
-382 32
-382 -86
-32 86 382
-383 -381
-383 -382
381 382 383
-384 32
-384 -370
-32 370 384
-385 8
-385 30
-8 -30 385
-386 31
-386 385
-31 -385 386
-387 32
-387 386
-32 -386 387
-388 33
-388 -384
-33 384 388
-389 -33
-389 387
33 -387 389
-390 -388
-390 -389
388 389 390
-391 86
-391 -390
-86 390 391
-392 33
-392 -86
-33 86 392
-393 -391
-393 -392
391 392 393
-394 -35
-394 -110
35 110 394
-395 36
-395 110
-36 -110 395
-396 -36
-396 -394
36 394 396
-397 -395
-397 -396
395 396 397
-398 -9
-398 34
9 -34 398
-399 34
-399 -398
-34 398 399
-400 35
-400 -399
-35 399 400
-401 9
-401 -34
-9 34 401
-402 -35
-402 401
35 -401 402
-403 -158
-403 -402
158 402 403
-404 36
-404 400
-36 -400 404
-405 -36
-405 -403
36 403 405
-406 -404
-406 -405
404 405 406
-407 37
-407 -397
-37 397 407
-408 -37
-408 -406
37 406 408
-409 -407
-409 -408
407 408 409
-410 87
-410 -409
-87 409 410
-411 34
-411 -87
-34 87 411
-412 -410
-412 -411
410 411 412
-413 34
-413 260
-34 -260 413
-414 -35
-414 413
35 -413 414
-415 -158
-415 -414
158 414 415
-416 36
-416 107
-36 -107 416
-417 -36
-417 -415
36 415 417
-418 -416
-418 -417
416 417 418
-419 35
-419 -400
-35 400 419
-420 -34
-420 -261
34 261 420
-421 35
-421 420
-35 -420 421
-422 -107
-422 -421
107 421 422
-423 36
-423 -419
-36 419 423
-424 -36
-424 -422
36 422 424
-425 -423
-425 -424
423 424 425
-426 37
-426 -418
-37 418 426
-427 -37
-427 -425
37 425 427
-428 -426
-428 -427
426 427 428
-429 87
-429 -428
-87 428 429
-430 35
-430 -87
-35 87 430
-431 -429
-431 -430
429 430 431
-432 34
-432 -260
-34 260 432
-433 34
-433 35
-34 -35 433
-434 -35
-434 432
35 -432 434
-435 -433
-435 -434
433 434 435
-436 -35
-436 36
35 -36 436
-437 -36
-437 -435
36 435 437
-438 -436
-438 -437
436 437 438
-439 -34
-439 261
34 -261 439
-440 -34
-440 -439
34 439 440
-441 35
-441 -440
-35 440 441
-442 -36
-442 441
36 -441 442
-443 -423
-443 -442
423 442 443
-444 37
-444 -438
-37 438 444
-445 -37
-445 -443
37 443 445
-446 -444
-446 -445
444 445 446
-447 87
-447 -446
-87 446 447
-448 36
-448 -87
-36 87 448
-449 -447
-449 -448
447 448 449
-450 36
-450 -436
-36 436 450
-451 9
-451 34
-9 -34 451
-452 35
-452 451
-35 -451 452
-453 36
-453 452
-36 -452 453
-454 37
-454 -450
-37 450 454
-455 -37
-455 453
37 -453 455
-456 -454
-456 -455
454 455 456
-457 87
-457 -456
-87 456 457
-458 37
-458 -87
-37 87 458
-459 -457
-459 -458
457 458 459
-460 -39
-460 -118
39 118 460
-461 40
-461 118
-40 -118 461
-462 -40
-462 -460
40 460 462
-463 -461
-463 -462
461 462 463
-464 -10
-464 38
10 -38 464
-465 38
-465 -464
-38 464 465
-466 39
-466 -465
-39 465 466
-467 10
-467 -38
-10 38 467
-468 -39
-468 467
39 -467 468
-469 -165
-469 -468
165 468 469
-470 40
-470 466
-40 -466 470
-471 -40
-471 -469
40 469 471
-472 -470
-472 -471
470 471 472
-473 41
-473 -463
-41 463 473
-474 -41
-474 -472
41 472 474
-475 -473
-475 -474
473 474 475
-476 88
-476 -475
-88 475 476
-477 38
-477 -88
-38 88 477
-478 -476
-478 -477
476 477 478
-479 38
-479 260
-38 -260 479
-480 -39
-480 479
39 -479 480
-481 -165
-481 -480
165 480 481
-482 40
-482 115
-40 -115 482
-483 -40
-483 -481
40 481 483
-484 -482
-484 -483
482 483 484
-485 39
-485 -466
-39 466 485
-486 -38
-486 -261
38 261 486
-487 39
-487 486
-39 -486 487
-488 -115
-488 -487
115 487 488
-489 40
-489 -485
-40 485 489
-490 -40
-490 -488
40 488 490
-491 -489
-491 -490
489 490 491
-492 41
-492 -484
-41 484 492
-493 -41
-493 -491
41 491 493
-494 -492
-494 -493
492 493 494
-495 88
-495 -494
-88 494 495
-496 39
-496 -88
-39 88 496
-497 -495
-497 -496
495 496 497
-498 38
-498 -260
-38 260 498
-499 38
-499 39
-38 -39 499
-500 -39
-500 498
39 -498 500
-501 -499
-501 -500
499 500 501
-502 -39
-502 40
39 -40 502
-503 -40
-503 -501
40 501 503
-504 -502
-504 -503
502 503 504
-505 -38
-505 261
38 -261 505
-506 -38
-506 -505
38 505 506
-507 39
-507 -506
-39 506 507
-508 -40
-508 507
40 -507 508
-509 -489
-509 -508
489 508 509
-510 41
-510 -504
-41 504 510
-511 -41
-511 -509
41 509 511
-512 -510
-512 -511
510 511 512
-513 88
-513 -512
-88 512 513
-514 40
-514 -88
-40 88 514
-515 -513
-515 -514
513 514 515
-516 40
-516 -502
-40 502 516
-517 10
-517 38
-10 -38 517
-518 39
-518 517
-39 -517 518
-519 40
-519 518
-40 -518 519
-520 41
-520 -516
-41 516 520
-521 -41
-521 519
41 -519 521
-522 -520
-522 -521
520 521 522
-523 88
-523 -522
-88 522 523
-524 41
-524 -88
-41 88 524
-525 -523
-525 -524
523 524 525
-526 -43
-526 -126
43 126 526
-527 44
-527 126
-44 -126 527
-528 -44
-528 -526
44 526 528
-529 -527
-529 -528
527 528 529
-530 -11
-530 42
11 -42 530
-531 42
-531 -530
-42 530 531
-532 43
-532 -531
-43 531 532
-533 11
-533 -42
-11 42 533
-534 -43
-534 533
43 -533 534
-535 -172
-535 -534
172 534 535
-536 44
-536 532
-44 -532 536
-537 -44
-537 -535
44 535 537
-538 -536
-538 -537
536 537 538
-539 45
-539 -529
-45 529 539
-540 -45
-540 -538
45 538 540
-541 -539
-541 -540
539 540 541
-542 89
-542 -541
-89 541 542
-543 42
-543 -89
-42 89 543
-544 -542
-544 -543
542 543 544
-545 42
-545 260
-42 -260 545
-546 -43
-546 545
43 -545 546
-547 -172
-547 -546
172 546 547
-548 44
-548 123
-44 -123 548
-549 -44
-549 -547
44 547 549
-550 -548
-550 -549
548 549 550
-551 43
-551 -532
-43 532 551
-552 -42
-552 -261
42 261 552
-553 43
-553 552
-43 -552 553
-554 -123
-554 -553
123 553 554
-555 44
-555 -551
-44 551 555
-556 -44
-556 -554
44 554 556
-557 -555
-557 -556
555 556 557
-558 45
-558 -550
-45 550 558
-559 -45
-559 -557
45 557 559
-560 -558
-560 -559
558 559 560
-561 89
-561 -560
-89 560 561
-562 43
-562 -89
-43 89 562
-563 -561
-563 -562
561 562 563
-564 42
-564 -260
-42 260 564
-565 42
-565 43
-42 -43 565
-566 -43
-566 564
43 -564 566
-567 -565
-567 -566
565 566 567
-568 -43
-568 44
43 -44 568
-569 -44
-569 -567
44 567 569
-570 -568
-570 -569
568 569 570
-571 -42
-571 261
42 -261 571
-572 -42
-572 -571
42 571 572
-573 43
-573 -572
-43 572 573
-574 -44
-574 573
44 -573 574
-575 -555
-575 -574
555 574 575
-576 45
-576 -570
-45 570 576
-577 -45
-577 -575
45 575 577
-578 -576
-578 -577
576 577 578
-579 89
-579 -578
-89 578 579
-580 44
-580 -89
-44 89 580
-581 -579
-581 -580
579 580 581
-582 44
-582 -568
-44 568 582
-583 11
-583 42
-11 -42 583
-584 43
-584 583
-43 -583 584
-585 44
-585 584
-44 -584 585
-586 45
-586 -582
-45 582 586
-587 -45
-587 585
45 -585 587
-588 -586
-588 -587
586 587 588
-589 89
-589 -588
-89 588 589
-590 45
-590 -89
-45 89 590
-591 -589
-591 -590
589 590 591
-592 -47
-592 -134
47 134 592
-593 48
-593 134
-48 -134 593
-594 -48
-594 -592
48 592 594
-595 -593
-595 -594
593 594 595
-596 -12
-596 46
12 -46 596
-597 46
-597 -596
-46 596 597
-598 47
-598 -597
-47 597 598
-599 12
-599 -46
-12 46 599
-600 -47
-600 599
47 -599 600
-601 -179
-601 -600
179 600 601
-602 48
-602 598
-48 -598 602
-603 -48
-603 -601
48 601 603
-604 -602
-604 -603
602 603 604
-605 49
-605 -595
-49 595 605
-606 -49
-606 -604
49 604 606
-607 -605
-607 -606
605 606 607
-608 90
-608 -607
-90 607 608
-609 46
-609 -90
-46 90 609
-610 -608
-610 -609
608 609 610
-611 46
-611 260
-46 -260 611
-612 -47
-612 611
47 -611 612
-613 -179
-613 -612
179 612 613
-614 48
-614 131
-48 -131 614
-615 -48
-615 -613
48 613 615
-616 -614
-616 -615
614 615 616
-617 47
-617 -598
-47 598 617
-618 -46
-618 -261
46 261 618
-619 47
-619 618
-47 -618 619
-620 -131
-620 -619
131 619 620
-621 48
-621 -617
-48 617 621
-622 -48
-622 -620
48 620 622
-623 -621
-623 -622
621 622 623
-624 49
-624 -616
-49 616 624
-625 -49
-625 -623
49 623 625
-626 -624
-626 -625
624 625 626
-627 90
-627 -626
-90 626 627
-628 47
-628 -90
-47 90 628
-629 -627
-629 -628
627 628 629
-630 46
-630 -260
-46 260 630
-631 46
-631 47
-46 -47 631
-632 -47
-632 630
47 -630 632
-633 -631
-633 -632
631 632 633
-634 -47
-634 48
47 -48 634
-635 -48
-635 -633
48 633 635
-636 -634
-636 -635
634 635 636
-637 -46
-637 261
46 -261 637
-638 -46
-638 -637
46 637 638
-639 47
-639 -638
-47 638 639
-640 -48
-640 639
48 -639 640
-641 -621
-641 -640
621 640 641
-642 49
-642 -636
-49 636 642
-643 -49
-643 -641
49 641 643
-644 -642
-644 -643
642 643 644
-645 90
-645 -644
-90 644 645
-646 48
-646 -90
-48 90 646
-647 -645
-647 -646
645 646 647
-648 48
-648 -634
-48 634 648
-649 12
-649 46
-12 -46 649
-650 47
-650 649
-47 -649 650
-651 48
-651 650
-48 -650 651
-652 49
-652 -648
-49 648 652
-653 -49
-653 651
49 -651 653
-654 -652
-654 -653
652 653 654
-655 90
-655 -654
-90 654 655
-656 49
-656 -90
-49 90 656
-657 -655
-657 -656
655 656 657
-658 92
-658 301
-92 -301 658
-659 85
-659 658
-85 -658 659
-660 100
-660 367
-100 -367 660
-661 86
-661 660
-86 -660 661
-662 108
-662 433
-108 -433 662
-663 87
-663 662
-87 -662 663
-664 116
-664 499
-116 -499 664
-665 88
-665 664
-88 -664 665
-666 124
-666 565
-124 -565 666
-667 89
-667 666
-89 -666 667
-668 132
-668 631
-132 -631 668
-669 90
-669 668
-90 -668 669
-670 -659
-670 -661
659 661 670
-671 -663
-671 -665
663 665 671
-672 -667
-672 -669
667 669 672
-673 670
-673 671
-670 -671 673
-674 672
-674 673
-672 -673 674
-675 95
-675 144
-95 -144 675
-676 85
-676 675
-85 -675 676
-677 103
-677 151
-103 -151 677
-678 86
-678 677
-86 -677 678
-679 111
-679 158
-111 -158 679
-680 87
-680 679
-87 -679 680
-681 119
-681 165
-119 -165 681
-682 88
-682 681
-88 -681 682
-683 127
-683 172
-127 -172 683
-684 89
-684 683
-89 -683 684
-685 135
-685 179
-135 -179 685
-686 90
-686 685
-90 -685 686
-687 -676
-687 -678
676 678 687
-688 -680
-688 -682
680 682 688
-689 -684
-689 -686
684 686 689
-690 687
-690 688
-687 -688 690
-691 689
-691 690
-689 -690 691
-692 -50
-692 51
50 -51 692
-693 50
-693 -51
-50 51 693
-694 -692
-694 -693
692 693 694
-695 -50
-695 -51
50 51 695
-696 -261
-696 -695
261 695 696
-697 -50
-697 -691
50 691 697
-698 50
-698 691
-50 -691 698
-699 -697
-699 -698
697 698 699
-700 -50
-700 -674
50 674 700
-701 674
-701 -699
-674 699 701
-702 -700
-702 -701
700 701 702
-703 -691
-703 -696
691 696 703
-704 51
-704 691
-51 -691 704
-705 -703
-705 -704
703 704 705
-706 -674
-706 -694
674 694 706
-707 674
-707 -705
-674 705 707
-708 -706
-708 -707
706 707 708
-709 145
-709 301
-145 -301 709
-710 -20
-710 709
20 -709 710
-711 152
-711 367
-152 -367 711
-712 -21
-712 711
21 -711 712
-713 159
-713 433
-159 -433 713
-714 -22
-714 713
22 -713 714
-715 166
-715 499
-166 -499 715
-716 -23
-716 715
23 -715 716
-717 173
-717 565
-173 -565 717
-718 -24
-718 717
24 -717 718
-719 180
-719 631
-180 -631 719
-720 -25
-720 719
25 -719 720
-721 710
-721 -712
-710 712 721
-722 -710
-722 712
710 -712 722
-723 -721
-723 -722
721 722 723
-724 710
-724 712
-710 -712 724
-725 -714
-725 -723
714 723 725
-726 714
-726 723
-714 -723 726
-727 -725
-727 -726
725 726 727
-728 714
-728 -723
-714 723 728
-729 724
-729 -728
-724 728 729
-730 -724
-730 728
724 -728 730
-731 -729
-731 -730
729 730 731
-732 724
-732 728
-724 -728 732
-733 -716
-733 -727
716 727 733
-734 716
-734 727
-716 -727 734
-735 -733
-735 -734
733 734 735
-736 716
-736 -727
-716 727 736
-737 -732
-737 -735
732 735 737
-738 732
-738 735
-732 -735 738
-739 -737
-739 -738
737 738 739
-740 732
-740 -735
-732 735 740
-741 -736
-741 -740
736 740 741
-742 -731
-742 741
731 -741 742
-743 731
-743 -741
-731 741 743
-744 -742
-744 -743
742 743 744
-745 -731
-745 -741
731 741 745
-746 -718
-746 -739
718 739 746
-747 718
-747 739
-718 -739 747
-748 -746
-748 -747
746 747 748
-749 718
-749 -739
-718 739 749
-750 -744
-750 -749
744 749 750
-751 744
-751 749
-744 -749 751
-752 -750
-752 -751
750 751 752
-753 -744
-753 749
744 -749 753
-754 745
-754 -753
-745 753 754
-755 -745
-755 753
745 -753 755
-756 -754
-756 -755
754 755 756
-757 745
-757 753
-745 -753 757
-758 -720
-758 -748
720 748 758
-759 720
-759 748
-720 -748 759
-760 -758
-760 -759
758 759 760
-761 720
-761 -748
-720 748 761
-762 -757
-762 -760
757 760 762
-763 757
-763 760
-757 -760 763
-764 -762
-764 -763
762 763 764
-765 757
-765 -760
-757 760 765
-766 -761
-766 -765
761 765 766
-767 -752
-767 766
752 -766 767
-768 752
-768 -766
-752 766 768
-769 -767
-769 -768
767 768 769
-770 -752
-770 -766
752 766 770
-771 -756
-771 -770
756 770 771
-772 756
-772 770
-756 -770 772
-773 -771
-773 -772
771 772 773
-774 -756
-774 770
756 -770 774
-775 -260
-775 -261
260 261 775
-776 261
-776 -674
-261 674 776
-777 -691
-777 695
691 -695 777
-778 773
-778 -776
-773 776 778
-779 -775
-779 -777
775 777 779
-780 778
-780 779
-778 -779 780
-780
